81365051444239395805010,3,1,2,02,3,1,2,015,14,1,2,06,8,1,2,011,4,1,2,05,7,1,2,07,3,1,2,09,14,1,2,09,12,1,2,011,6,1,2,08,1,1,2,07,6,1,2,06,1,1,2,05,14,1,2,03,8,1,2,08,9,1,2,015,8,1,2,015,13,1,2,06,3,1,2,010,13,1,2,03,1,1,2,013,4,1,2,09,10,1,2,014,10,1,2,08,8,1,2,014,8,1,2,08,11,1,2,015,6,1,2,04,10,1,2,09,15,1,2,08,13,1,2,02,15,1,2,03,13,1,2,011,13,1,2,07,13,1,2,08,7,1,2,010,13,1,2,03,11,1,2,015,14,1,2,08,9,1,2,09,4,1,2,010,10,1,2,09,4,1,2,09,11,1,2,011,14,1,2,09,13,1,2,03,6,1,2,08,10,1,2,04,14,1,2,06,3,1,2,0